p cnf 934 2747
r 0.5 1 2 3 4 5 6 7 8 9 10 11 12 13 14 15 16 17 18 19 20 21 22 23 24 25 26 27 28 29 30 0
e 31 32 33 34 35 36 37 38 39 40 41 42 43 44 45 46 47 48 49 50 51 52 53 54 55 56 57 58 59 60 61 62 63 64 65 66 67 68 69 70 71 72 73 74 75 76 77 78 79 80 81 82 83 84 85 86 87 88 89 90 91 92 93 94 95 96 97 98 99 100 101 102 103 104 105 106 107 108 109 110 111 112 113 114 115 116 117 118 119 120 121 122 123 124 125 126 127 128 129 130 131 132 133 134 135 136 137 138 139 140 141 142 143 144 145 146 147 148 149 150 151 152 153 154 155 156 157 158 159 160 161 162 163 164 165 166 167 168 169 170 171 172 173 174 175 176 177 178 179 180 181 182 183 184 185 186 187 188 189 190 191 192 193 194 195 196 197 198 199 200 201 202 203 204 205 206 207 208 209 210 211 212 213 214 215 216 217 218 219 220 221 222 223 224 225 226 227 228 229 230 231 232 233 234 235 236 237 238 239 240 241 242 243 244 245 246 247 248 249 250 251 252 253 254 255 256 257 258 259 260 261 262 263 264 265 266 267 268 269 270 271 272 273 274 275 276 277 278 279 280 281 282 283 284 285 286 287 288 289 290 291 292 293 294 295 296 297 298 299 300 301 302 303 304 305 306 307 308 309 310 311 312 313 314 315 316 317 318 319 320 321 322 323 324 325 326 327 328 329 330 331 332 333 334 335 336 337 338 339 340 341 342 343 344 345 346 347 348 349 350 351 352 353 354 355 356 357 358 359 360 361 362 363 364 365 366 367 368 369 370 371 372 373 374 375 376 377 378 379 380 381 382 383 384 385 386 387 388 389 390 391 392 393 394 395 396 397 398 399 400 401 402 403 404 405 406 407 408 409 410 411 412 413 414 415 416 417 418 419 420 421 422 423 424 425 426 427 428 429 430 431 432 433 434 435 436 437 438 439 440 441 442 443 444 445 446 447 448 449 450 451 452 453 454 455 456 457 458 459 460 461 462 463 464 465 466 467 468 469 470 471 472 473 474 475 476 477 478 479 480 481 482 483 484 485 486 487 488 489 490 491 492 493 494 495 496 497 498 499 500 501 502 503 504 505 506 507 508 509 510 511 512 513 514 515 516 517 518 519 520 521 522 523 524 525 526 527 528 529 530 531 532 533 534 535 536 537 538 539 540 541 542 543 544 545 546 547 548 549 550 551 552 553 554 555 556 557 558 559 560 561 562 563 564 565 566 567 568 569 570 571 572 573 574 575 576 577 578 579 580 581 582 583 584 585 586 587 588 589 590 591 592 593 594 595 596 597 598 599 600 601 602 603 604 605 606 607 608 609 610 611 612 613 614 615 616 617 618 619 620 621 622 623 624 625 626 627 628 629 630 631 632 633 634 635 636 637 638 639 640 641 642 643 644 645 646 647 648 649 650 651 652 653 654 655 656 657 658 659 660 661 662 663 664 665 666 667 668 669 670 671 672 673 674 675 676 677 678 679 680 681 682 683 684 685 686 687 688 689 690 691 692 693 694 695 696 697 698 699 700 701 702 703 704 705 706 707 708 709 710 711 712 713 714 715 716 717 718 719 720 721 722 723 724 725 726 727 728 729 730 731 732 733 734 735 736 737 738 739 740 741 742 743 744 745 746 747 748 749 750 751 752 753 754 755 756 757 758 759 760 761 762 763 764 765 766 767 768 769 770 771 772 773 774 775 776 777 778 779 780 781 782 783 784 785 786 787 788 789 790 791 792 793 794 795 796 797 798 799 800 801 802 803 804 805 806 807 808 809 810 811 812 813 814 815 816 817 818 819 820 821 822 823 824 825 826 827 828 829 830 831 832 833 834 835 836 837 838 839 840 841 842 843 844 845 846 847 848 849 850 851 852 853 854 855 856 857 858 859 860 861 862 863 864 865 866 867 868 869 870 871 872 873 874 875 876 877 878 879 880 881 882 883 884 885 886 887 888 889 890 891 892 893 894 895 896 897 898 899 900 901 902 903 904 905 906 907 908 909 910 911 912 913 914 915 916 917 918 919 920 921 922 923 924 925 926 927 928 929 930 931 932 933 934 0
-934 -31 1 0
-933 -32 2 0
-932 -33 3 0
-931 -34 4 0
-930 -35 5 0
-929 -36 6 0
-928 -37 7 0
-927 -38 8 0
-926 -39 9 0
-925 -40 10 0
-924 -41 11 0
-923 -42 12 0
-922 -43 13 0
-921 -44 14 0
-920 -45 15 0
-919 -46 16 0
-918 -47 17 0
-917 -48 18 0
-916 -49 19 0
-915 -50 20 0
-914 -51 21 0
-913 -52 22 0
-912 -53 23 0
-911 -54 24 0
-910 -55 25 0
-909 -56 26 0
-908 -57 27 0
-907 -58 28 0
-906 -59 29 0
-905 -60 30 0
-904 1 0
-904 -31 0
-903 31 0
-903 -1 0
-902 2 0
-902 -32 0
-901 32 0
-901 -2 0
-900 3 0
-900 -33 0
-899 33 0
-899 -3 0
-898 4 0
-898 -34 0
-897 34 0
-897 -4 0
-896 5 0
-896 -35 0
-895 35 0
-895 -5 0
-894 6 0
-894 -36 0
-893 36 0
-893 -6 0
-892 7 0
-892 -37 0
-891 37 0
-891 -7 0
-890 8 0
-890 -38 0
-889 38 0
-889 -8 0
-888 9 0
-888 -39 0
-887 39 0
-887 -9 0
-886 10 0
-886 -40 0
-885 40 0
-885 -10 0
-884 11 0
-884 -41 0
-883 41 0
-883 -11 0
-882 12 0
-882 -42 0
-881 42 0
-881 -12 0
-880 13 0
-880 -43 0
-879 43 0
-879 -13 0
-878 14 0
-878 -44 0
-877 44 0
-877 -14 0
-876 15 0
-876 -45 0
-875 45 0
-875 -15 0
-874 16 0
-874 -46 0
-873 46 0
-873 -16 0
-872 17 0
-872 -47 0
-871 47 0
-871 -17 0
-870 18 0
-870 -48 0
-869 48 0
-869 -18 0
-868 19 0
-868 -49 0
-867 49 0
-867 -19 0
-866 20 0
-866 -50 0
-865 50 0
-865 -20 0
-864 21 0
-864 -51 0
-863 51 0
-863 -21 0
-862 22 0
-862 -52 0
-861 52 0
-861 -22 0
-860 23 0
-860 -53 0
-859 53 0
-859 -23 0
-858 24 0
-858 -54 0
-857 54 0
-857 -24 0
-856 25 0
-856 -55 0
-855 55 0
-855 -25 0
-854 26 0
-854 -56 0
-853 56 0
-853 -26 0
-852 27 0
-852 -57 0
-851 57 0
-851 -27 0
-850 28 0
-850 -58 0
-849 58 0
-849 -28 0
-848 29 0
-848 -59 0
-847 59 0
-847 -29 0
-846 30 0
-846 -60 0
-845 60 0
-845 -30 0
-844 904 903 902 901 900 899 898 897 896 895 894 893 892 891 890 889 888 887 886 885 884 883 882 881 880 879 878 877 876 875 874 873 872 871 870 869 868 867 866 865 864 863 862 861 860 859 858 857 856 855 854 853 852 851 850 849 848 847 846 845 0
-843 18 0
-843 9 0
-843 11 0
-843 28 0
-843 -8 0
-842 9 0
-842 22 0
-842 7 0
-842 -8 0
-841 23 0
-841 14 0
-841 10 0
-841 17 0
-841 -8 0
-840 14 0
-840 20 0
-840 17 0
-840 21 0
-840 -8 0
-839 16 0
-839 13 0
-839 1 0
-839 25 0
-839 -8 0
-838 16 0
-838 24 0
-838 6 0
-838 21 0
-838 -8 0
-837 5 0
-837 17 0
-837 21 0
-837 10 0
-837 -8 0
-836 19 0
-836 26 0
-836 9 0
-836 4 0
-836 -8 0
-835 7 0
-835 15 0
-835 10 0
-835 -8 0
-834 21 0
-834 24 0
-834 18 0
-834 7 0
-834 -8 0
-833 3 0
-833 19 0
-833 6 0
-833 26 0
-833 -25 0
-832 2 0
-832 10 0
-832 22 0
-832 8 0
-832 -25 0
-831 11 0
-831 8 0
-831 20 0
-831 17 0
-831 -25 0
-830 6 0
-830 2 0
-830 28 0
-830 8 0
-830 -25 0
-829 3 0
-829 30 0
-829 10 0
-829 18 0
-829 -25 0
-828 16 0
-828 19 0
-828 26 0
-828 -25 0
-827 20 0
-827 17 0
-827 1 0
-827 4 0
-827 -25 0
-826 22 0
-826 21 0
-826 24 0
-826 4 0
-826 -25 0
-825 16 0
-825 4 0
-825 23 0
-825 2 0
-825 -25 0
-824 24 0
-824 7 0
-824 19 0
-824 4 0
-824 -25 0
-823 22 0
-823 27 0
-823 12 0
-823 2 0
-823 -29 0
-822 8 0
-822 4 0
-822 18 0
-822 -29 0
-821 1 0
-821 21 0
-821 6 0
-821 13 0
-821 -29 0
-820 10 0
-820 21 0
-820 6 0
-820 20 0
-820 -29 0
-819 10 0
-819 30 0
-819 25 0
-819 -29 0
-818 7 0
-818 15 0
-818 22 0
-818 2 0
-818 -29 0
-817 30 0
-817 7 0
-817 6 0
-817 9 0
-817 -29 0
-816 21 0
-816 24 0
-816 22 0
-816 27 0
-816 -29 0
-815 9 0
-815 6 0
-815 3 0
-815 8 0
-815 -29 0
-814 22 0
-814 15 0
-814 14 0
-814 26 0
-814 -29 0
-813 26 0
-813 29 0
-813 30 0
-813 19 0
-813 -2 0
-812 24 0
-812 11 0
-812 19 0
-812 30 0
-812 -2 0
-811 12 0
-811 20 0
-811 21 0
-811 4 0
-811 -2 0
-810 10 0
-810 26 0
-810 12 0
-810 4 0
-810 -2 0
-809 30 0
-809 26 0
-809 13 0
-809 5 0
-809 -2 0
-808 23 0
-808 12 0
-808 1 0
-808 -2 0
-807 12 0
-807 18 0
-807 1 0
-807 -2 0
-806 22 0
-806 28 0
-806 15 0
-806 19 0
-806 -2 0
-805 23 0
-805 10 0
-805 13 0
-805 19 0
-805 -2 0
-804 14 0
-804 24 0
-804 10 0
-804 17 0
-804 -2 0
-803 12 0
-803 15 0
-803 23 0
-803 18 0
-803 -30 0
-802 29 0
-802 24 0
-802 8 0
-802 17 0
-802 -30 0
-801 25 0
-801 7 0
-801 5 0
-801 23 0
-801 -30 0
-800 25 0
-800 19 0
-800 5 0
-800 8 0
-800 -30 0
-799 17 0
-799 4 0
-799 8 0
-799 2 0
-799 -30 0
-798 23 0
-798 15 0
-798 1 0
-798 17 0
-798 -30 0
-797 25 0
-797 15 0
-797 27 0
-797 13 0
-797 -30 0
-796 8 0
-796 19 0
-796 12 0
-796 -30 0
-795 9 0
-795 2 0
-795 4 0
-795 22 0
-795 -30 0
-794 7 0
-794 19 0
-794 18 0
-794 11 0
-794 -30 0
-793 14 0
-793 6 0
-793 22 0
-793 4 0
-793 -16 0
-792 9 0
-792 13 0
-792 15 0
-792 30 0
-792 -16 0
-791 28 0
-791 15 0
-791 12 0
-791 8 0
-791 -16 0
-790 3 0
-790 9 0
-790 1 0
-790 -16 0
-789 18 0
-789 22 0
-789 5 0
-789 -16 0
-788 8 0
-788 24 0
-788 19 0
-788 9 0
-788 -16 0
-787 9 0
-787 20 0
-787 15 0
-787 13 0
-787 -16 0
-786 30 0
-786 29 0
-786 23 0
-786 -16 0
-785 15 0
-785 2 0
-785 1 0
-785 -16 0
-784 23 0
-784 27 0
-784 7 0
-784 8 0
-784 -16 0
-783 18 0
-783 16 0
-783 20 0
-783 22 0
-783 -10 0
-782 23 0
-782 3 0
-782 15 0
-782 20 0
-782 -10 0
-781 21 0
-781 2 0
-781 19 0
-781 26 0
-781 -10 0
-780 17 0
-780 20 0
-780 18 0
-780 14 0
-780 -10 0
-779 21 0
-779 24 0
-779 12 0
-779 -10 0
-778 18 0
-778 23 0
-778 28 0
-778 17 0
-778 -10 0
-777 28 0
-777 23 0
-777 17 0
-777 22 0
-777 -10 0
-776 18 0
-776 7 0
-776 15 0
-776 9 0
-776 -10 0
-775 23 0
-775 3 0
-775 4 0
-775 28 0
-775 -10 0
-774 19 0
-774 21 0
-774 2 0
-774 6 0
-774 -10 0
-773 18 0
-773 30 0
-773 25 0
-773 9 0
-773 -22 0
-772 2 0
-772 4 0
-772 28 0
-772 18 0
-772 -22 0
-771 8 0
-771 12 0
-771 14 0
-771 23 0
-771 -22 0
-770 12 0
-770 26 0
-770 20 0
-770 23 0
-770 -22 0
-769 25 0
-769 23 0
-769 15 0
-769 18 0
-769 -22 0
-768 27 0
-768 5 0
-768 15 0
-768 29 0
-768 -22 0
-767 26 0
-767 5 0
-767 10 0
-767 14 0
-767 -22 0
-766 3 0
-766 27 0
-766 5 0
-766 -22 0
-765 26 0
-765 11 0
-765 12 0
-765 16 0
-765 -22 0
-764 17 0
-764 18 0
-764 29 0
-764 16 0
-764 -22 0
-763 18 0
-763 2 0
-763 15 0
-763 -28 0
-762 30 0
-762 5 0
-762 27 0
-762 -28 0
-761 24 0
-761 6 0
-761 27 0
-761 20 0
-761 -28 0
-760 15 0
-760 30 0
-760 16 0
-760 24 0
-760 -28 0
-759 23 0
-759 17 0
-759 14 0
-759 26 0
-759 -28 0
-758 30 0
-758 10 0
-758 3 0
-758 4 0
-758 -28 0
-757 13 0
-757 3 0
-757 21 0
-757 6 0
-757 -28 0
-756 10 0
-756 4 0
-756 11 0
-756 30 0
-756 -28 0
-755 23 0
-755 7 0
-755 3 0
-755 4 0
-755 -28 0
-754 14 0
-754 29 0
-754 20 0
-754 22 0
-754 -28 0
-753 15 0
-753 8 0
-753 1 0
-753 16 0
-753 -26 0
-752 16 0
-752 18 0
-752 4 0
-752 -26 0
-751 27 0
-751 22 0
-751 20 0
-751 8 0
-751 -26 0
-750 11 0
-750 30 0
-750 4 0
-750 25 0
-750 -26 0
-749 17 0
-749 12 0
-749 28 0
-749 6 0
-749 -26 0
-748 7 0
-748 30 0
-748 21 0
-748 5 0
-748 -26 0
-747 9 0
-747 10 0
-747 11 0
-747 12 0
-747 -26 0
-746 3 0
-746 5 0
-746 28 0
-746 -26 0
-745 22 0
-745 7 0
-745 16 0
-745 30 0
-745 -26 0
-744 30 0
-744 27 0
-744 18 0
-744 19 0
-744 -26 0
-743 26 0
-743 5 0
-743 24 0
-743 7 0
-743 -6 0
-742 26 0
-742 15 0
-742 16 0
-742 8 0
-742 -6 0
-741 15 0
-741 28 0
-741 22 0
-741 3 0
-741 -6 0
-740 2 0
-740 4 0
-740 17 0
-740 26 0
-740 -6 0
-739 18 0
-739 22 0
-739 8 0
-739 10 0
-739 -6 0
-738 4 0
-738 8 0
-738 10 0
-738 14 0
-738 -6 0
-737 10 0
-737 15 0
-737 23 0
-737 29 0
-737 -6 0
-736 10 0
-736 17 0
-736 9 0
-736 28 0
-736 -6 0
-735 2 0
-735 27 0
-735 23 0
-735 16 0
-735 -6 0
-734 10 0
-734 4 0
-734 16 0
-734 24 0
-734 -6 0
-733 13 0
-733 30 0
-733 14 0
-733 23 0
-733 -19 0
-732 27 0
-732 24 0
-732 20 0
-732 7 0
-732 -19 0
-731 1 0
-731 11 0
-731 17 0
-731 10 0
-731 -19 0
-730 3 0
-730 13 0
-730 27 0
-730 7 0
-730 -19 0
-729 25 0
-729 28 0
-729 1 0
-729 8 0
-729 -19 0
-728 17 0
-728 23 0
-728 28 0
-728 21 0
-728 -19 0
-727 3 0
-727 23 0
-727 8 0
-727 7 0
-727 -19 0
-726 13 0
-726 29 0
-726 25 0
-726 -19 0
-725 12 0
-725 20 0
-725 24 0
-725 26 0
-725 -19 0
-724 26 0
-724 29 0
-724 14 0
-724 27 0
-724 -19 0
-723 11 0
-723 27 0
-723 29 0
-723 16 0
-723 -15 0
-722 6 0
-722 26 0
-722 10 0
-722 24 0
-722 -15 0
-721 14 0
-721 10 0
-721 6 0
-721 -15 0
-720 10 0
-720 16 0
-720 4 0
-720 18 0
-720 -15 0
-719 13 0
-719 2 0
-719 6 0
-719 3 0
-719 -15 0
-718 18 0
-718 2 0
-718 24 0
-718 4 0
-718 -15 0
-717 14 0
-717 10 0
-717 18 0
-717 13 0
-717 -15 0
-716 25 0
-716 3 0
-716 23 0
-716 -15 0
-715 6 0
-715 3 0
-715 17 0
-715 5 0
-715 -15 0
-714 21 0
-714 5 0
-714 28 0
-714 17 0
-714 -15 0
-713 24 0
-713 27 0
-713 21 0
-713 -9 0
-712 11 0
-712 20 0
-712 30 0
-712 28 0
-712 -9 0
-711 21 0
-711 17 0
-711 10 0
-711 18 0
-711 -9 0
-710 26 0
-710 21 0
-710 1 0
-710 28 0
-710 -9 0
-709 20 0
-709 7 0
-709 25 0
-709 26 0
-709 -9 0
-708 18 0
-708 1 0
-708 19 0
-708 11 0
-708 -9 0
-707 25 0
-707 6 0
-707 17 0
-707 -9 0
-706 29 0
-706 27 0
-706 26 0
-706 15 0
-706 -9 0
-705 24 0
-705 14 0
-705 5 0
-705 20 0
-705 -9 0
-704 5 0
-704 27 0
-704 25 0
-704 11 0
-704 -9 0
-703 11 0
-703 28 0
-703 10 0
-703 1 0
-703 -7 0
-702 21 0
-702 20 0
-702 19 0
-702 -7 0
-701 12 0
-701 24 0
-701 15 0
-701 18 0
-701 -7 0
-700 16 0
-700 27 0
-700 18 0
-700 -7 0
-699 1 0
-699 11 0
-699 19 0
-699 4 0
-699 -7 0
-698 26 0
-698 9 0
-698 27 0
-698 4 0
-698 -7 0
-697 26 0
-697 15 0
-697 12 0
-697 28 0
-697 -7 0
-696 10 0
-696 22 0
-696 27 0
-696 -7 0
-695 9 0
-695 19 0
-695 25 0
-695 18 0
-695 -7 0
-694 18 0
-694 15 0
-694 13 0
-694 3 0
-694 -7 0
-693 21 0
-693 1 0
-693 9 0
-693 19 0
-693 -11 0
-692 23 0
-692 30 0
-692 18 0
-692 28 0
-692 -11 0
-691 6 0
-691 26 0
-691 18 0
-691 30 0
-691 -11 0
-690 17 0
-690 8 0
-690 24 0
-690 2 0
-690 -11 0
-689 12 0
-689 24 0
-689 25 0
-689 18 0
-689 -11 0
-688 15 0
-688 22 0
-688 2 0
-688 26 0
-688 -11 0
-687 25 0
-687 16 0
-687 9 0
-687 17 0
-687 -11 0
-686 9 0
-686 8 0
-686 28 0
-686 4 0
-686 -11 0
-685 19 0
-685 20 0
-685 6 0
-685 -11 0
-684 20 0
-684 8 0
-684 15 0
-684 29 0
-684 -11 0
-683 12 0
-683 11 0
-683 17 0
-683 14 0
-683 -3 0
-682 19 0
-682 5 0
-682 7 0
-682 15 0
-682 -3 0
-681 19 0
-681 4 0
-681 5 0
-681 7 0
-681 -3 0
-680 30 0
-680 12 0
-680 29 0
-680 -3 0
-679 22 0
-679 16 0
-679 -3 0
-678 14 0
-678 8 0
-678 19 0
-678 24 0
-678 -3 0
-677 20 0
-677 15 0
-677 23 0
-677 24 0
-677 -3 0
-676 2 0
-676 28 0
-676 27 0
-676 -3 0
-675 14 0
-675 10 0
-675 19 0
-675 -3 0
-674 4 0
-674 1 0
-674 8 0
-674 26 0
-674 -3 0
-673 29 0
-673 14 0
-673 8 0
-673 24 0
-673 -1 0
-672 5 0
-672 30 0
-672 18 0
-672 25 0
-672 -1 0
-671 3 0
-671 27 0
-671 6 0
-671 10 0
-671 -1 0
-670 5 0
-670 29 0
-670 6 0
-670 9 0
-670 -1 0
-669 15 0
-669 9 0
-669 28 0
-669 -1 0
-668 12 0
-668 6 0
-668 7 0
-668 16 0
-668 -1 0
-667 17 0
-667 2 0
-667 20 0
-667 9 0
-667 -1 0
-666 30 0
-666 21 0
-666 25 0
-666 -1 0
-665 16 0
-665 23 0
-665 25 0
-665 7 0
-665 -1 0
-664 15 0
-664 27 0
-664 8 0
-664 10 0
-664 -1 0
-663 30 0
-663 26 0
-663 21 0
-663 -24 0
-662 15 0
-662 10 0
-662 8 0
-662 27 0
-662 -24 0
-661 4 0
-661 9 0
-661 27 0
-661 20 0
-661 -24 0
-660 26 0
-660 3 0
-660 10 0
-660 30 0
-660 -24 0
-659 26 0
-659 4 0
-659 14 0
-659 -24 0
-658 9 0
-658 16 0
-658 25 0
-658 13 0
-658 -24 0
-657 18 0
-657 11 0
-657 26 0
-657 20 0
-657 -24 0
-656 22 0
-656 13 0
-656 1 0
-656 -24 0
-655 15 0
-655 7 0
-655 12 0
-655 6 0
-655 -24 0
-654 7 0
-654 11 0
-654 8 0
-654 18 0
-654 -24 0
-653 6 0
-653 9 0
-653 19 0
-653 -4 0
-652 14 0
-652 5 0
-652 11 0
-652 13 0
-652 -4 0
-651 25 0
-651 27 0
-651 20 0
-651 7 0
-651 -4 0
-650 23 0
-650 3 0
-650 19 0
-650 5 0
-650 -4 0
-649 20 0
-649 5 0
-649 9 0
-649 25 0
-649 -4 0
-648 5 0
-648 2 0
-648 24 0
-648 29 0
-648 -4 0
-647 26 0
-647 1 0
-647 15 0
-647 3 0
-647 -4 0
-646 27 0
-646 30 0
-646 10 0
-646 14 0
-646 -4 0
-645 22 0
-645 21 0
-645 26 0
-645 -4 0
-644 20 0
-644 2 0
-644 26 0
-644 -4 0
-643 28 0
-643 1 0
-643 25 0
-643 21 0
-643 -5 0
-642 17 0
-642 23 0
-642 24 0
-642 2 0
-642 -5 0
-641 13 0
-641 4 0
-641 20 0
-641 23 0
-641 -5 0
-640 22 0
-640 1 0
-640 29 0
-640 3 0
-640 -5 0
-639 23 0
-639 6 0
-639 2 0
-639 24 0
-639 -5 0
-638 3 0
-638 12 0
-638 21 0
-638 16 0
-638 -5 0
-637 22 0
-637 17 0
-637 23 0
-637 -5 0
-636 10 0
-636 6 0
-636 25 0
-636 7 0
-636 -5 0
-635 4 0
-635 2 0
-635 25 0
-635 6 0
-635 -5 0
-634 1 0
-634 10 0
-634 7 0
-634 26 0
-634 -5 0
-633 12 0
-633 22 0
-633 26 0
-633 -17 0
-632 25 0
-632 1 0
-632 19 0
-632 -17 0
-631 5 0
-631 4 0
-631 13 0
-631 -17 0
-630 22 0
-630 27 0
-630 4 0
-630 5 0
-630 -17 0
-629 25 0
-629 19 0
-629 14 0
-629 -17 0
-628 15 0
-628 29 0
-628 20 0
-628 11 0
-628 -17 0
-627 30 0
-627 2 0
-627 29 0
-627 3 0
-627 -17 0
-626 26 0
-626 21 0
-626 25 0
-626 -17 0
-625 28 0
-625 14 0
-625 6 0
-625 26 0
-625 -17 0
-624 7 0
-624 2 0
-624 15 0
-624 14 0
-624 -17 0
-623 7 0
-623 25 0
-623 3 0
-623 17 0
-623 -23 0
-622 21 0
-622 13 0
-622 19 0
-622 4 0
-622 -23 0
-621 28 0
-621 12 0
-621 17 0
-621 27 0
-621 -23 0
-620 11 0
-620 18 0
-620 5 0
-620 4 0
-620 -23 0
-619 20 0
-619 10 0
-619 5 0
-619 27 0
-619 -23 0
-618 20 0
-618 9 0
-618 29 0
-618 5 0
-618 -23 0
-617 11 0
-617 2 0
-617 14 0
-617 24 0
-617 -23 0
-616 22 0
-616 7 0
-616 21 0
-616 28 0
-616 -23 0
-615 25 0
-615 3 0
-615 21 0
-615 5 0
-615 -23 0
-614 5 0
-614 7 0
-614 12 0
-614 19 0
-614 -23 0
-613 22 0
-613 15 0
-613 16 0
-613 23 0
-613 -20 0
-612 6 0
-612 21 0
-612 2 0
-612 -20 0
-611 3 0
-611 4 0
-611 1 0
-611 17 0
-611 -20 0
-610 9 0
-610 12 0
-610 22 0
-610 3 0
-610 -20 0
-609 21 0
-609 1 0
-609 11 0
-609 26 0
-609 -20 0
-608 15 0
-608 29 0
-608 17 0
-608 4 0
-608 -20 0
-607 11 0
-607 2 0
-607 21 0
-607 7 0
-607 -20 0
-606 7 0
-606 29 0
-606 14 0
-606 15 0
-606 -20 0
-605 1 0
-605 18 0
-605 12 0
-605 5 0
-605 -20 0
-604 3 0
-604 18 0
-604 13 0
-604 6 0
-604 -20 0
-603 5 0
-603 19 0
-603 25 0
-603 4 0
-603 -27 0
-602 4 0
-602 14 0
-602 10 0
-602 16 0
-602 -27 0
-601 13 0
-601 19 0
-601 5 0
-601 23 0
-601 -27 0
-600 25 0
-600 22 0
-600 13 0
-600 -27 0
-599 9 0
-599 19 0
-599 12 0
-599 25 0
-599 -27 0
-598 11 0
-598 3 0
-598 12 0
-598 -27 0
-597 12 0
-597 22 0
-597 28 0
-597 13 0
-597 -27 0
-596 16 0
-596 6 0
-596 1 0
-596 28 0
-596 -27 0
-595 19 0
-595 10 0
-595 13 0
-595 12 0
-595 -27 0
-594 16 0
-594 24 0
-594 28 0
-594 11 0
-594 -27 0
-593 29 0
-593 3 0
-593 25 0
-593 -21 0
-592 12 0
-592 9 0
-592 7 0
-592 29 0
-592 -21 0
-591 16 0
-591 11 0
-591 24 0
-591 17 0
-591 -21 0
-590 22 0
-590 15 0
-590 7 0
-590 6 0
-590 -21 0
-589 19 0
-589 16 0
-589 4 0
-589 -21 0
-588 28 0
-588 24 0
-588 1 0
-588 12 0
-588 -21 0
-587 20 0
-587 2 0
-587 26 0
-587 -21 0
-586 24 0
-586 15 0
-586 1 0
-586 13 0
-586 -21 0
-585 9 0
-585 28 0
-585 29 0
-585 5 0
-585 -21 0
-584 6 0
-584 22 0
-584 16 0
-584 5 0
-584 -21 0
-583 17 0
-583 15 0
-583 11 0
-583 2 0
-583 -14 0
-582 4 0
-582 6 0
-582 9 0
-582 8 0
-582 -14 0
-581 22 0
-581 2 0
-581 5 0
-581 -14 0
-580 9 0
-580 12 0
-580 10 0
-580 18 0
-580 -14 0
-579 29 0
-579 3 0
-579 17 0
-579 9 0
-579 -14 0
-578 5 0
-578 28 0
-578 6 0
-578 21 0
-578 -14 0
-577 3 0
-577 30 0
-577 11 0
-577 24 0
-577 -14 0
-576 15 0
-576 17 0
-576 25 0
-576 2 0
-576 -14 0
-575 21 0
-575 3 0
-575 18 0
-575 7 0
-575 -14 0
-574 4 0
-574 30 0
-574 22 0
-574 24 0
-574 -14 0
-573 22 0
-573 14 0
-573 15 0
-573 24 0
-573 -13 0
-572 27 0
-572 6 0
-572 5 0
-572 29 0
-572 -13 0
-571 25 0
-571 21 0
-571 23 0
-571 -13 0
-570 24 0
-570 1 0
-570 29 0
-570 2 0
-570 -13 0
-569 10 0
-569 3 0
-569 18 0
-569 25 0
-569 -13 0
-568 30 0
-568 11 0
-568 12 0
-568 6 0
-568 -13 0
-567 14 0
-567 2 0
-567 1 0
-567 10 0
-567 -13 0
-566 29 0
-566 10 0
-566 7 0
-566 -13 0
-565 27 0
-565 4 0
-565 22 0
-565 -13 0
-564 17 0
-564 21 0
-564 29 0
-564 10 0
-564 -13 0
-563 14 0
-563 23 0
-563 3 0
-563 16 0
-563 -18 0
-562 27 0
-562 19 0
-562 2 0
-562 8 0
-562 -18 0
-561 20 0
-561 25 0
-561 29 0
-561 28 0
-561 -18 0
-560 23 0
-560 15 0
-560 14 0
-560 -18 0
-559 23 0
-559 2 0
-559 13 0
-559 9 0
-559 -18 0
-558 11 0
-558 3 0
-558 12 0
-558 23 0
-558 -18 0
-557 8 0
-557 1 0
-557 3 0
-557 16 0
-557 -18 0
-556 28 0
-556 7 0
-556 19 0
-556 27 0
-556 -18 0
-555 21 0
-555 10 0
-555 3 0
-555 11 0
-555 -18 0
-554 12 0
-554 1 0
-554 8 0
-554 -18 0
-553 6 0
-553 23 0
-553 24 0
-553 18 0
-553 -12 0
-552 7 0
-552 9 0
-552 14 0
-552 30 0
-552 -12 0
-551 19 0
-551 25 0
-551 4 0
-551 -12 0
-550 20 0
-550 2 0
-550 19 0
-550 6 0
-550 -12 0
-549 5 0
-549 26 0
-549 11 0
-549 -12 0
-548 20 0
-548 24 0
-548 11 0
-548 19 0
-548 -12 0
-547 3 0
-547 20 0
-547 14 0
-547 28 0
-547 -12 0
-546 19 0
-546 10 0
-546 8 0
-546 9 0
-546 -12 0
-545 5 0
-545 24 0
-545 2 0
-545 30 0
-545 -12 0
-544 29 0
-544 17 0
-544 28 0
-544 16 0
-544 -12 0
-543 -20 0
-543 -5 0
-543 -27 0
-543 -28 0
-542 -20 0
-542 -18 0
-542 -24 0
-542 -9 0
-541 -22 0
-541 -21 0
-541 -14 0
-541 -20 0
-540 -7 0
-540 -2 0
-540 -30 0
-540 -23 0
-539 -14 0
-539 -23 0
-539 -8 0
-539 -12 0
-538 -18 0
-538 -8 0
-538 -30 0
-538 -24 0
-537 -19 0
-537 -22 0
-537 -7 0
-537 -9 0
-536 -12 0
-536 -11 0
-536 -6 0
-536 -7 0
-535 -16 0
-535 -14 0
-535 -23 0
-535 -18 0
-534 -27 0
-534 -6 0
-534 -30 0
-534 -29 0
-533 -16 0
-533 -8 0
-533 -1 0
-533 -19 0
-532 -2 0
-532 -17 0
-532 -30 0
-531 -9 0
-531 -14 0
-531 -17 0
-531 -30 0
-530 -4 0
-530 -21 0
-530 -7 0
-530 -8 0
-529 -2 0
-529 -12 0
-529 -16 0
-529 -27 0
-528 -7 0
-528 -11 0
-528 -28 0
-528 -4 0
-527 -19 0
-527 -8 0
-527 -1 0
-527 -18 0
-526 -29 0
-526 -17 0
-526 -23 0
-526 -12 0
-525 -9 0
-525 -26 0
-525 -2 0
-525 -28 0
-524 -23 0
-524 -12 0
-524 -8 0
-524 -13 0
-523 -21 0
-523 -17 0
-523 -25 0
-523 -7 0
-522 -28 0
-522 -3 0
-522 -7 0
-522 -2 0
-521 -11 0
-521 -19 0
-521 -13 0
-521 -17 0
-520 -14 0
-520 -13 0
-520 -6 0
-520 -8 0
-519 -13 0
-519 -4 0
-519 -18 0
-519 -17 0
-518 -2 0
-518 -15 0
-518 -17 0
-518 -3 0
-517 -17 0
-517 -27 0
-517 -21 0
-517 -9 0
-516 -20 0
-516 -1 0
-516 -6 0
-515 -8 0
-515 -30 0
-515 -1 0
-515 -28 0
-514 -15 0
-514 -20 0
-514 -30 0
-514 -13 0
-513 -16 0
-513 -20 0
-513 -6 0
-512 -17 0
-512 -5 0
-512 -20 0
-512 -6 0
-511 -25 0
-511 -9 0
-511 -29 0
-511 -30 0
-510 -21 0
-510 -11 0
-510 -9 0
-510 -28 0
-509 -26 0
-509 -8 0
-509 -9 0
-509 -27 0
-508 -26 0
-508 -3 0
-508 -14 0
-507 -5 0
-507 -9 0
-507 -1 0
-507 -29 0
-506 -22 0
-506 -9 0
-506 -17 0
-506 -30 0
-505 -22 0
-505 -25 0
-505 -13 0
-505 -18 0
-504 -9 0
-504 -17 0
-504 -28 0
-504 -10 0
-503 -14 0
-503 -29 0
-503 -2 0
-503 -7 0
-502 -1 0
-502 -3 0
-502 -23 0
-502 -24 0
-501 -28 0
-501 -10 0
-501 -30 0
-501 -1 0
-500 -23 0
-500 -25 0
-500 -14 0
-500 -30 0
-499 -10 0
-499 -16 0
-498 -19 0
-498 -4 0
-498 -26 0
-498 -24 0
-497 -5 0
-497 -22 0
-497 -28 0
-497 -21 0
-496 -5 0
-496 -28 0
-496 -25 0
-496 -3 0
-495 -19 0
-495 -14 0
-495 -23 0
-495 -18 0
-494 -30 0
-494 -11 0
-494 -26 0
-494 -15 0
-493 -9 0
-493 -17 0
-493 -13 0
-492 -10 0
-492 -26 0
-492 -25 0
-492 -9 0
-491 -22 0
-491 -12 0
-491 -24 0
-490 -24 0
-490 -5 0
-490 -10 0
-490 -8 0
-489 -4 0
-489 -7 0
-489 -1 0
-489 -26 0
-488 -23 0
-488 -24 0
-488 -1 0
-488 -2 0
-487 -22 0
-487 -6 0
-487 -27 0
-487 -19 0
-486 -1 0
-486 -2 0
-486 -27 0
-486 -8 0
-485 -28 0
-485 -22 0
-485 -13 0
-485 -11 0
-484 -1 0
-484 -18 0
-484 -27 0
-483 -4 0
-483 -28 0
-483 -15 0
-483 -22 0
-482 -5 0
-482 -6 0
-482 -12 0
-482 -26 0
-481 -27 0
-481 -3 0
-481 -24 0
-481 -28 0
-480 -14 0
-480 -18 0
-480 -30 0
-480 -2 0
-479 -8 0
-479 -5 0
-479 -11 0
-479 -1 0
-478 -20 0
-478 -26 0
-478 -1 0
-477 -28 0
-477 -10 0
-477 -21 0
-476 -30 0
-476 -18 0
-476 -19 0
-476 -20 0
-475 -12 0
-475 -11 0
-475 -23 0
-475 -4 0
-474 -21 0
-474 -17 0
-474 -12 0
-474 -19 0
-473 -22 0
-473 -26 0
-473 -5 0
-473 -2 0
-472 -22 0
-472 -27 0
-472 -12 0
-471 -7 0
-471 -3 0
-471 -12 0
-470 -11 0
-470 -2 0
-470 -23 0
-470 -20 0
-469 -26 0
-469 -20 0
-469 -19 0
-469 -16 0
-468 -17 0
-468 -23 0
-468 -5 0
-468 -15 0
-467 -28 0
-467 -15 0
-467 -29 0
-467 -2 0
-466 -21 0
-466 -20 0
-466 -11 0
-466 -27 0
-465 -29 0
-465 -13 0
-465 -5 0
-464 -9 0
-464 -4 0
-464 -25 0
-464 -13 0
-463 -2 0
-463 -24 0
-462 -17 0
-462 -29 0
-462 -2 0
-462 -20 0
-461 -1 0
-461 -7 0
-461 -5 0
-461 -25 0
-460 -22 0
-460 -19 0
-460 -9 0
-460 -11 0
-459 -11 0
-459 -6 0
-459 -19 0
-458 -8 0
-458 -1 0
-458 -13 0
-458 -2 0
-457 -7 0
-457 -1 0
-457 -13 0
-456 -10 0
-456 -18 0
-456 -3 0
-456 -26 0
-455 -3 0
-455 -14 0
-455 -4 0
-455 -8 0
-454 -17 0
-454 -20 0
-454 -11 0
-454 -28 0
-453 -48 -39 -41 -58 38 0
-452 -39 -52 -37 38 0
-451 -53 -44 -40 -47 38 0
-450 -44 -50 -47 -51 38 0
-449 -46 -43 -31 -55 38 0
-448 -46 -54 -36 -51 38 0
-447 -35 -47 -51 -40 38 0
-446 -49 -56 -39 -34 38 0
-445 -37 -45 -40 38 0
-444 -51 -54 -48 -37 38 0
-443 -33 -49 -36 -56 55 0
-442 -32 -40 -52 -38 55 0
-441 -41 -38 -50 -47 55 0
-440 -36 -32 -58 -38 55 0
-439 -33 -60 -40 -48 55 0
-438 -46 -49 -56 55 0
-437 -50 -47 -31 -34 55 0
-436 -52 -51 -54 -34 55 0
-435 -46 -34 -53 -32 55 0
-434 -54 -37 -49 -34 55 0
-433 -52 -57 -42 -32 59 0
-432 -38 -34 -48 59 0
-431 -31 -51 -36 -43 59 0
-430 -40 -51 -36 -50 59 0
-429 -40 -60 -55 59 0
-428 -37 -45 -52 -32 59 0
-427 -60 -37 -36 -39 59 0
-426 -51 -54 -52 -57 59 0
-425 -39 -36 -33 -38 59 0
-424 -52 -45 -44 -56 59 0
-423 -56 -59 -60 -49 32 0
-422 -54 -41 -49 -60 32 0
-421 -42 -50 -51 -34 32 0
-420 -40 -56 -42 -34 32 0
-419 -60 -56 -43 -35 32 0
-418 -53 -42 -31 32 0
-417 -42 -48 -31 32 0
-416 -52 -58 -45 -49 32 0
-415 -53 -40 -43 -49 32 0
-414 -44 -54 -40 -47 32 0
-413 -42 -45 -53 -48 60 0
-412 -59 -54 -38 -47 60 0
-411 -55 -37 -35 -53 60 0
-410 -55 -49 -35 -38 60 0
-409 -47 -34 -38 -32 60 0
-408 -53 -45 -31 -47 60 0
-407 -55 -45 -57 -43 60 0
-406 -38 -49 -42 60 0
-405 -39 -32 -34 -52 60 0
-404 -37 -49 -48 -41 60 0
-403 -44 -36 -52 -34 46 0
-402 -39 -43 -45 -60 46 0
-401 -58 -45 -42 -38 46 0
-400 -33 -39 -31 46 0
-399 -48 -52 -35 46 0
-398 -38 -54 -49 -39 46 0
-397 -39 -50 -45 -43 46 0
-396 -60 -59 -53 46 0
-395 -45 -32 -31 46 0
-394 -53 -57 -37 -38 46 0
-393 -48 -46 -50 -52 40 0
-392 -53 -33 -45 -50 40 0
-391 -51 -32 -49 -56 40 0
-390 -47 -50 -48 -44 40 0
-389 -51 -54 -42 40 0
-388 -48 -53 -58 -47 40 0
-387 -58 -53 -47 -52 40 0
-386 -48 -37 -45 -39 40 0
-385 -53 -33 -34 -58 40 0
-384 -49 -51 -32 -36 40 0
-383 -48 -60 -55 -39 52 0
-382 -32 -34 -58 -48 52 0
-381 -38 -42 -44 -53 52 0
-380 -42 -56 -50 -53 52 0
-379 -55 -53 -45 -48 52 0
-378 -57 -35 -45 -59 52 0
-377 -56 -35 -40 -44 52 0
-376 -33 -57 -35 52 0
-375 -56 -41 -42 -46 52 0
-374 -47 -48 -59 -46 52 0
-373 -48 -32 -45 58 0
-372 -60 -35 -57 58 0
-371 -54 -36 -57 -50 58 0
-370 -45 -60 -46 -54 58 0
-369 -53 -47 -44 -56 58 0
-368 -60 -40 -33 -34 58 0
-367 -43 -33 -51 -36 58 0
-366 -40 -34 -41 -60 58 0
-365 -53 -37 -33 -34 58 0
-364 -44 -59 -50 -52 58 0
-363 -45 -38 -31 -46 56 0
-362 -46 -48 -34 56 0
-361 -57 -52 -50 -38 56 0
-360 -41 -60 -34 -55 56 0
-359 -47 -42 -58 -36 56 0
-358 -37 -60 -51 -35 56 0
-357 -39 -40 -41 -42 56 0
-356 -33 -35 -58 56 0
-355 -52 -37 -46 -60 56 0
-354 -60 -57 -48 -49 56 0
-353 -56 -35 -54 -37 36 0
-352 -56 -45 -46 -38 36 0
-351 -45 -58 -52 -33 36 0
-350 -32 -34 -47 -56 36 0
-349 -48 -52 -38 -40 36 0
-348 -34 -38 -40 -44 36 0
-347 -40 -45 -53 -59 36 0
-346 -40 -47 -39 -58 36 0
-345 -32 -57 -53 -46 36 0
-344 -40 -34 -46 -54 36 0
-343 -43 -60 -44 -53 49 0
-342 -57 -54 -50 -37 49 0
-341 -31 -41 -47 -40 49 0
-340 -33 -43 -57 -37 49 0
-339 -55 -58 -31 -38 49 0
-338 -47 -53 -58 -51 49 0
-337 -33 -53 -38 -37 49 0
-336 -43 -59 -55 49 0
-335 -42 -50 -54 -56 49 0
-334 -56 -59 -44 -57 49 0
-333 -41 -57 -59 -46 45 0
-332 -36 -56 -40 -54 45 0
-331 -44 -40 -36 45 0
-330 -40 -46 -34 -48 45 0
-329 -43 -32 -36 -33 45 0
-328 -48 -32 -54 -34 45 0
-327 -44 -40 -48 -43 45 0
-326 -55 -33 -53 45 0
-325 -36 -33 -47 -35 45 0
-324 -51 -35 -58 -47 45 0
-323 -54 -57 -51 39 0
-322 -41 -50 -60 -58 39 0
-321 -51 -47 -40 -48 39 0
-320 -56 -51 -31 -58 39 0
-319 -50 -37 -55 -56 39 0
-318 -48 -31 -49 -41 39 0
-317 -55 -36 -47 39 0
-316 -59 -57 -56 -45 39 0
-315 -54 -44 -35 -50 39 0
-314 -35 -57 -55 -41 39 0
-313 -41 -58 -40 -31 37 0
-312 -51 -50 -49 37 0
-311 -42 -54 -45 -48 37 0
-310 -46 -57 -48 37 0
-309 -31 -41 -49 -34 37 0
-308 -56 -39 -57 -34 37 0
-307 -56 -45 -42 -58 37 0
-306 -40 -52 -57 37 0
-305 -39 -49 -55 -48 37 0
-304 -48 -45 -43 -33 37 0
-303 -51 -31 -39 -49 41 0
-302 -53 -60 -48 -58 41 0
-301 -36 -56 -48 -60 41 0
-300 -47 -38 -54 -32 41 0
-299 -42 -54 -55 -48 41 0
-298 -45 -52 -32 -56 41 0
-297 -55 -46 -39 -47 41 0
-296 -39 -38 -58 -34 41 0
-295 -49 -50 -36 41 0
-294 -50 -38 -45 -59 41 0
-293 -42 -41 -47 -44 33 0
-292 -49 -35 -37 -45 33 0
-291 -49 -34 -35 -37 33 0
-290 -60 -42 -59 33 0
-289 -52 -46 33 0
-288 -44 -38 -49 -54 33 0
-287 -50 -45 -53 -54 33 0
-286 -32 -58 -57 33 0
-285 -44 -40 -49 33 0
-284 -34 -31 -38 -56 33 0
-283 -59 -44 -38 -54 31 0
-282 -35 -60 -48 -55 31 0
-281 -33 -57 -36 -40 31 0
-280 -35 -59 -36 -39 31 0
-279 -45 -39 -58 31 0
-278 -42 -36 -37 -46 31 0
-277 -47 -32 -50 -39 31 0
-276 -60 -51 -55 31 0
-275 -46 -53 -55 -37 31 0
-274 -45 -57 -38 -40 31 0
-273 -60 -56 -51 54 0
-272 -45 -40 -38 -57 54 0
-271 -34 -39 -57 -50 54 0
-270 -56 -33 -40 -60 54 0
-269 -56 -34 -44 54 0
-268 -39 -46 -55 -43 54 0
-267 -48 -41 -56 -50 54 0
-266 -52 -43 -31 54 0
-265 -45 -37 -42 -36 54 0
-264 -37 -41 -38 -48 54 0
-263 -36 -39 -49 34 0
-262 -44 -35 -41 -43 34 0
-261 -55 -57 -50 -37 34 0
-260 -53 -33 -49 -35 34 0
-259 -50 -35 -39 -55 34 0
-258 -35 -32 -54 -59 34 0
-257 -56 -31 -45 -33 34 0
-256 -57 -60 -40 -44 34 0
-255 -52 -51 -56 34 0
-254 -50 -32 -56 34 0
-253 -58 -31 -55 -51 35 0
-252 -47 -53 -54 -32 35 0
-251 -43 -34 -50 -53 35 0
-250 -52 -31 -59 -33 35 0
-249 -53 -36 -32 -54 35 0
-248 -33 -42 -51 -46 35 0
-247 -52 -47 -53 35 0
-246 -40 -36 -55 -37 35 0
-245 -34 -32 -55 -36 35 0
-244 -31 -40 -37 -56 35 0
-243 -42 -52 -56 47 0
-242 -55 -31 -49 47 0
-241 -35 -34 -43 47 0
-240 -52 -57 -34 -35 47 0
-239 -55 -49 -44 47 0
-238 -45 -59 -50 -41 47 0
-237 -60 -32 -59 -33 47 0
-236 -56 -51 -55 47 0
-235 -58 -44 -36 -56 47 0
-234 -37 -32 -45 -44 47 0
-233 -37 -55 -33 -47 53 0
-232 -51 -43 -49 -34 53 0
-231 -58 -42 -47 -57 53 0
-230 -41 -48 -35 -34 53 0
-229 -50 -40 -35 -57 53 0
-228 -50 -39 -59 -35 53 0
-227 -41 -32 -44 -54 53 0
-226 -52 -37 -51 -58 53 0
-225 -55 -33 -51 -35 53 0
-224 -35 -37 -42 -49 53 0
-223 -52 -45 -46 -53 50 0
-222 -36 -51 -32 50 0
-221 -33 -34 -31 -47 50 0
-220 -39 -42 -52 -33 50 0
-219 -51 -31 -41 -56 50 0
-218 -45 -59 -47 -34 50 0
-217 -41 -32 -51 -37 50 0
-216 -37 -59 -44 -45 50 0
-215 -31 -48 -42 -35 50 0
-214 -33 -48 -43 -36 50 0
-213 -35 -49 -55 -34 57 0
-212 -34 -44 -40 -46 57 0
-211 -43 -49 -35 -53 57 0
-210 -55 -52 -43 57 0
-209 -39 -49 -42 -55 57 0
-208 -41 -33 -42 57 0
-207 -42 -52 -58 -43 57 0
-206 -46 -36 -31 -58 57 0
-205 -49 -40 -43 -42 57 0
-204 -46 -54 -58 -41 57 0
-203 -59 -33 -55 51 0
-202 -42 -39 -37 -59 51 0
-201 -46 -41 -54 -47 51 0
-200 -52 -45 -37 -36 51 0
-199 -49 -46 -34 51 0
-198 -58 -54 -31 -42 51 0
-197 -50 -32 -56 51 0
-196 -54 -45 -31 -43 51 0
-195 -39 -58 -59 -35 51 0
-194 -36 -52 -46 -35 51 0
-193 -47 -45 -41 -32 44 0
-192 -34 -36 -39 -38 44 0
-191 -52 -32 -35 44 0
-190 -39 -42 -40 -48 44 0
-189 -59 -33 -47 -39 44 0
-188 -35 -58 -36 -51 44 0
-187 -33 -60 -41 -54 44 0
-186 -45 -47 -55 -32 44 0
-185 -51 -33 -48 -37 44 0
-184 -34 -60 -52 -54 44 0
-183 -52 -44 -45 -54 43 0
-182 -57 -36 -35 -59 43 0
-181 -55 -51 -53 43 0
-180 -54 -31 -59 -32 43 0
-179 -40 -33 -48 -55 43 0
-178 -60 -41 -42 -36 43 0
-177 -44 -32 -31 -40 43 0
-176 -59 -40 -37 43 0
-175 -57 -34 -52 43 0
-174 -47 -51 -59 -40 43 0
-173 -44 -53 -33 -46 48 0
-172 -57 -49 -32 -38 48 0
-171 -50 -55 -59 -58 48 0
-170 -53 -45 -44 48 0
-169 -53 -32 -43 -39 48 0
-168 -41 -33 -42 -53 48 0
-167 -38 -31 -33 -46 48 0
-166 -58 -37 -49 -57 48 0
-165 -51 -40 -33 -41 48 0
-164 -42 -31 -38 48 0
-163 -36 -53 -54 -48 42 0
-162 -37 -39 -44 -60 42 0
-161 -49 -55 -34 42 0
-160 -50 -32 -49 -36 42 0
-159 -35 -56 -41 42 0
-158 -50 -54 -41 -49 42 0
-157 -33 -50 -44 -58 42 0
-156 -49 -40 -38 -39 42 0
-155 -35 -54 -32 -60 42 0
-154 -59 -47 -58 -46 42 0
-153 50 35 57 58 0
-152 50 48 54 39 0
-151 52 51 44 50 0
-150 37 32 60 53 0
-149 44 53 38 42 0
-148 48 38 60 54 0
-147 49 52 37 39 0
-146 42 41 36 37 0
-145 46 44 53 48 0
-144 57 36 60 59 0
-143 46 38 31 49 0
-142 32 47 60 0
-141 39 44 47 60 0
-140 34 51 37 38 0
-139 32 42 46 57 0
-138 37 41 58 34 0
-137 49 38 31 48 0
-136 59 47 53 42 0
-135 39 56 32 58 0
-134 53 42 38 43 0
-133 51 47 55 37 0
-132 58 33 37 32 0
-131 41 49 43 47 0
-130 44 43 36 38 0
-129 43 34 48 47 0
-128 32 45 47 33 0
-127 47 57 51 39 0
-126 50 31 36 0
-125 38 60 31 58 0
-124 45 50 60 43 0
-123 46 50 36 0
-122 47 35 50 36 0
-121 55 39 59 60 0
-120 51 41 39 58 0
-119 56 38 39 57 0
-118 56 33 44 0
-117 35 39 31 59 0
-116 52 39 47 60 0
-115 52 55 43 48 0
-114 39 47 58 40 0
-113 44 59 32 37 0
-112 31 33 53 54 0
-111 58 40 60 31 0
-110 53 55 44 60 0
-109 40 46 0
-108 49 34 56 54 0
-107 35 52 58 51 0
-106 35 58 55 33 0
-105 49 44 53 48 0
-104 60 41 56 45 0
-103 39 47 43 0
-102 40 56 55 39 0
-101 52 42 54 0
-100 54 35 40 38 0
-99 34 37 31 56 0
-98 53 54 31 32 0
-97 52 36 57 49 0
-96 31 32 57 38 0
-95 58 52 43 41 0
-94 31 48 57 0
-93 34 58 45 52 0
-92 35 36 42 56 0
-91 57 33 54 58 0
-90 44 48 60 32 0
-89 38 35 41 31 0
-88 50 56 31 0
-87 58 40 51 0
-86 60 48 49 50 0
-85 42 41 53 34 0
-84 51 47 42 49 0
-83 52 56 35 32 0
-82 52 57 42 0
-81 37 33 42 0
-80 41 32 53 50 0
-79 56 50 49 46 0
-78 47 53 35 45 0
-77 58 45 59 32 0
-76 51 50 41 57 0
-75 59 43 35 0
-74 39 34 55 43 0
-73 32 54 0
-72 47 59 32 50 0
-71 31 37 35 55 0
-70 52 49 39 41 0
-69 41 36 49 0
-68 38 31 43 32 0
-67 37 31 43 0
-66 40 48 33 56 0
-65 33 44 34 38 0
-64 47 50 41 58 0
-63 453 0
-63 452 0
-63 451 0
-63 450 0
-63 449 0
-63 448 0
-63 447 0
-63 446 0
-63 445 0
-63 444 0
-63 443 0
-63 442 0
-63 441 0
-63 440 0
-63 439 0
-63 438 0
-63 437 0
-63 436 0
-63 435 0
-63 434 0
-63 433 0
-63 432 0
-63 431 0
-63 430 0
-63 429 0
-63 428 0
-63 427 0
-63 426 0
-63 425 0
-63 424 0
-63 423 0
-63 422 0
-63 421 0
-63 420 0
-63 419 0
-63 418 0
-63 417 0
-63 416 0
-63 415 0
-63 414 0
-63 413 0
-63 412 0
-63 411 0
-63 410 0
-63 409 0
-63 408 0
-63 407 0
-63 406 0
-63 405 0
-63 404 0
-63 403 0
-63 402 0
-63 401 0
-63 400 0
-63 399 0
-63 398 0
-63 397 0
-63 396 0
-63 395 0
-63 394 0
-63 393 0
-63 392 0
-63 391 0
-63 390 0
-63 389 0
-63 388 0
-63 387 0
-63 386 0
-63 385 0
-63 384 0
-63 383 0
-63 382 0
-63 381 0
-63 380 0
-63 379 0
-63 378 0
-63 377 0
-63 376 0
-63 375 0
-63 374 0
-63 373 0
-63 372 0
-63 371 0
-63 370 0
-63 369 0
-63 368 0
-63 367 0
-63 366 0
-63 365 0
-63 364 0
-63 363 0
-63 362 0
-63 361 0
-63 360 0
-63 359 0
-63 358 0
-63 357 0
-63 356 0
-63 355 0
-63 354 0
-63 353 0
-63 352 0
-63 351 0
-63 350 0
-63 349 0
-63 348 0
-63 347 0
-63 346 0
-63 345 0
-63 344 0
-63 343 0
-63 342 0
-63 341 0
-63 340 0
-63 339 0
-63 338 0
-63 337 0
-63 336 0
-63 335 0
-63 334 0
-63 333 0
-63 332 0
-63 331 0
-63 330 0
-63 329 0
-63 328 0
-63 327 0
-63 326 0
-63 325 0
-63 324 0
-63 323 0
-63 322 0
-63 321 0
-63 320 0
-63 319 0
-63 318 0
-63 317 0
-63 316 0
-63 315 0
-63 314 0
-63 313 0
-63 312 0
-63 311 0
-63 310 0
-63 309 0
-63 308 0
-63 307 0
-63 306 0
-63 305 0
-63 304 0
-63 303 0
-63 302 0
-63 301 0
-63 300 0
-63 299 0
-63 298 0
-63 297 0
-63 296 0
-63 295 0
-63 294 0
-63 293 0
-63 292 0
-63 291 0
-63 290 0
-63 289 0
-63 288 0
-63 287 0
-63 286 0
-63 285 0
-63 284 0
-63 283 0
-63 282 0
-63 281 0
-63 280 0
-63 279 0
-63 278 0
-63 277 0
-63 276 0
-63 275 0
-63 274 0
-63 273 0
-63 272 0
-63 271 0
-63 270 0
-63 269 0
-63 268 0
-63 267 0
-63 266 0
-63 265 0
-63 264 0
-63 263 0
-63 262 0
-63 261 0
-63 260 0
-63 259 0
-63 258 0
-63 257 0
-63 256 0
-63 255 0
-63 254 0
-63 253 0
-63 252 0
-63 251 0
-63 250 0
-63 249 0
-63 248 0
-63 247 0
-63 246 0
-63 245 0
-63 244 0
-63 243 0
-63 242 0
-63 241 0
-63 240 0
-63 239 0
-63 238 0
-63 237 0
-63 236 0
-63 235 0
-63 234 0
-63 233 0
-63 232 0
-63 231 0
-63 230 0
-63 229 0
-63 228 0
-63 227 0
-63 226 0
-63 225 0
-63 224 0
-63 223 0
-63 222 0
-63 221 0
-63 220 0
-63 219 0
-63 218 0
-63 217 0
-63 216 0
-63 215 0
-63 214 0
-63 213 0
-63 212 0
-63 211 0
-63 210 0
-63 209 0
-63 208 0
-63 207 0
-63 206 0
-63 205 0
-63 204 0
-63 203 0
-63 202 0
-63 201 0
-63 200 0
-63 199 0
-63 198 0
-63 197 0
-63 196 0
-63 195 0
-63 194 0
-63 193 0
-63 192 0
-63 191 0
-63 190 0
-63 189 0
-63 188 0
-63 187 0
-63 186 0
-63 185 0
-63 184 0
-63 183 0
-63 182 0
-63 181 0
-63 180 0
-63 179 0
-63 178 0
-63 177 0
-63 176 0
-63 175 0
-63 174 0
-63 173 0
-63 172 0
-63 171 0
-63 170 0
-63 169 0
-63 168 0
-63 167 0
-63 166 0
-63 165 0
-63 164 0
-63 163 0
-63 162 0
-63 161 0
-63 160 0
-63 159 0
-63 158 0
-63 157 0
-63 156 0
-63 155 0
-63 154 0
-63 153 0
-63 152 0
-63 151 0
-63 150 0
-63 149 0
-63 148 0
-63 147 0
-63 146 0
-63 145 0
-63 144 0
-63 143 0
-63 142 0
-63 141 0
-63 140 0
-63 139 0
-63 138 0
-63 137 0
-63 136 0
-63 135 0
-63 134 0
-63 133 0
-63 132 0
-63 131 0
-63 130 0
-63 129 0
-63 128 0
-63 127 0
-63 126 0
-63 125 0
-63 124 0
-63 123 0
-63 122 0
-63 121 0
-63 120 0
-63 119 0
-63 118 0
-63 117 0
-63 116 0
-63 115 0
-63 114 0
-63 113 0
-63 112 0
-63 111 0
-63 110 0
-63 109 0
-63 108 0
-63 107 0
-63 106 0
-63 105 0
-63 104 0
-63 103 0
-63 102 0
-63 101 0
-63 100 0
-63 99 0
-63 98 0
-63 97 0
-63 96 0
-63 95 0
-63 94 0
-63 93 0
-63 92 0
-63 91 0
-63 90 0
-63 89 0
-63 88 0
-63 87 0
-63 86 0
-63 85 0
-63 84 0
-63 83 0
-63 82 0
-63 81 0
-63 80 0
-63 79 0
-63 78 0
-63 77 0
-63 76 0
-63 75 0
-63 74 0
-63 73 0
-63 72 0
-63 71 0
-63 70 0
-63 69 0
-63 68 0
-63 67 0
-63 66 0
-63 65 0
-63 64 0
-62 843 842 841 840 839 838 837 836 835 834 833 832 831 830 829 828 827 826 825 824 823 822 821 820 819 818 817 816 815 814 813 812 811 810 809 808 807 806 805 804 803 802 801 800 799 798 797 796 795 794 793 792 791 790 789 788 787 786 785 784 783 782 781 780 779 778 777 776 775 774 773 772 771 770 769 768 767 766 765 764 763 762 761 760 759 758 757 756 755 754 753 752 751 750 749 748 747 746 745 744 743 742 741 740 739 738 737 736 735 734 733 732 731 730 729 728 727 726 725 724 723 722 721 720 719 718 717 716 715 714 713 712 711 710 709 708 707 706 705 704 703 702 701 700 699 698 697 696 695 694 693 692 691 690 689 688 687 686 685 684 683 682 681 680 679 678 677 676 675 674 673 672 671 670 669 668 667 666 665 664 663 662 661 660 659 658 657 656 655 654 653 652 651 650 649 648 647 646 645 644 643 642 641 640 639 638 637 636 635 634 633 632 631 630 629 628 627 626 625 624 623 622 621 620 619 618 617 616 615 614 613 612 611 610 609 608 607 606 605 604 603 602 601 600 599 598 597 596 595 594 593 592 591 590 589 588 587 586 585 584 583 582 581 580 579 578 577 576 575 574 573 572 571 570 569 568 567 566 565 564 563 562 561 560 559 558 557 556 555 554 553 552 551 550 549 548 547 546 545 544 543 542 541 540 539 538 537 536 535 534 533 532 531 530 529 528 527 526 525 524 523 522 521 520 519 518 517 516 515 514 513 512 511 510 509 508 507 506 505 504 503 502 501 500 499 498 497 496 495 494 493 492 491 490 489 488 487 486 485 484 483 482 481 480 479 478 477 476 475 474 473 472 471 470 469 468 467 466 465 464 463 462 461 460 459 458 457 456 455 454 63 0
-61 934 0
-61 933 0
-61 932 0
-61 931 0
-61 930 0
-61 929 0
-61 928 0
-61 927 0
-61 926 0
-61 925 0
-61 924 0
-61 923 0
-61 922 0
-61 921 0
-61 920 0
-61 919 0
-61 918 0
-61 917 0
-61 916 0
-61 915 0
-61 914 0
-61 913 0
-61 912 0
-61 911 0
-61 910 0
-61 909 0
-61 908 0
-61 907 0
-61 906 0
-61 905 0
-61 844 0
-61 62 0
61 -8 -25 0

